p cnf 150 360
81 58 -112 0
17 -95 121 0
-84 -114 39 0
86 -37 -78 0
-99 -1 -48 0
12 112 -47 0
-26 -17 -71 0
120 -137 -18 0
70 -94 -141 0
-28 65 -41 0
123 -31 -85 0
-117 64 95 0
50 90 109 0
93 29 -5 0
139 -35 -141 0
55 -17 -12 0
-116 -62 -69 0
-124 135 -53 0
109 -149 102 0
69 141 -132 0
103 -64 -98 0
-34 -26 51 0
-90 -52 121 0
13 -43 145 0
11 -79 67 0
-117 -107 57 0
-80 126 63 0
-46 129 72 0
-148 -119 100 0
-64 60 138 0
-136 -80 31 0
-120 14 70 0
39 18 27 0
7 40 -69 0
-106 59 107 0
-32 -80 -71 0
134 -36 8 0
-99 21 -6 0
-33 -67 133 0
68 -40 -96 0
-141 -92 140 0
-62 146 95 0
109 -35 136 0
-140 -33 16 0
96 19 72 0
2 108 -45 0
-136 -88 86 0
-17 18 -25 0
-5 -95 -109 0
-35 68 29 0
-79 -60 14 0
-7 -92 -114 0
12 77 -71 0
81 48 -122 0
94 14 60 0
96 84 -130 0
-47 -14 78 0
106 131 142 0
-58 -52 6 0
132 -143 52 0
68 -37 42 0
-37 -60 95 0
-15 -124 -149 0
-60 30 -114 0
117 53 -66 0
-41 -31 -124 0
17 -64 99 0
87 33 76 0
-46 -106 -19 0
128 -30 -71 0
141 140 62 0
-29 86 -140 0
-136 -150 -116 0
104 -84 41 0
-82 5 -78 0
51 107 -68 0
-126 -148 -128 0
-20 51 83 0
-99 145 46 0
-106 7 -52 0
-107 25 8 0
133 -57 -89 0
121 138 -3 0
142 -78 -58 0
46 -112 -37 0
-82 -34 -148 0
-67 100 21 0
140 -148 -62 0
-108 -134 107 0
-43 -86 -51 0
-133 93 69 0
18 -50 22 0
-63 -16 -12 0
32 24 -143 0
39 -92 -95 0
61 -10 -68 0
75 11 113 0
149 20 98 0
-96 125 5 0
35 137 42 0
114 -22 -87 0
-11 66 -79 0
142 129 147 0
-19 -53 -54 0
29 118 -109 0
-55 -79 107 0
-101 110 -60 0
-85 135 -145 0
-61 -127 130 0
-119 -118 -59 0
116 77 -67 0
-6 40 136 0
-117 97 -137 0
115 74 87 0
-14 86 -39 0
37 109 -110 0
111 125 -53 0
-58 -149 -148 0
109 -53 -100 0
53 -34 -81 0
85 88 87 0
-106 84 -4 0
-6 88 -44 0
130 67 70 0
-7 -58 104 0
79 -132 -93 0
87 33 131 0
129 46 10 0
-21 -105 -28 0
42 148 -54 0
-82 -13 -135 0
-88 41 98 0
-73 -142 83 0
-82 -77 109 0
84 -61 112 0
-81 -53 -12 0
-6 53 38 0
24 146 -23 0
-37 -65 117 0
-4 58 -11 0
63 -14 89 0
-37 -124 36 0
31 26 93 0
-120 -148 73 0
138 50 -3 0
101 61 -75 0
-69 -29 -53 0
106 115 -23 0
-55 9 82 0
-120 -92 -144 0
-73 -107 81 0
-144 132 -25 0
-119 -43 -86 0
106 -75 147 0
-67 75 145 0
102 -146 -31 0
-93 -51 -10 0
59 103 112 0
-125 -111 -127 0
-128 15 21 0
134 -3 -111 0
46 48 -121 0
74 -23 26 0
29 -57 122 0
-53 -101 36 0
121 138 -52 0
-74 128 -147 0
-119 -146 62 0
118 -133 125 0
143 40 127 0
13 -85 139 0
-119 114 -68 0
39 53 33 0
-16 142 67 0
-16 -31 49 0
140 9 -87 0
-125 -126 3 0
-147 -13 30 0
-139 33 23 0
133 31 19 0
-14 -138 6 0
116 39 -123 0
140 7 -117 0
-41 109 23 0
-20 139 84 0
54 -5 109 0
-143 -37 -76 0
31 99 -94 0
-123 -117 13 0
76 -10 15 0
-36 -13 114 0
-44 -131 38 0
49 80 6 0
92 -130 -12 0
93 134 62 0
-91 -76 38 0
-51 -122 -131 0
31 18 87 0
-97 66 80 0
52 6 64 0
150 -60 -101 0
-14 -43 -80 0
-5 116 -58 0
44 -89 -30 0
-87 25 122 0
137 55 -149 0
-110 -140 74 0
-17 130 -93 0
15 -26 81 0
25 103 77 0
-124 64 -126 0
-72 104 -115 0
-142 -49 -35 0
-135 -89 43 0
-43 95 -67 0
115 86 -92 0
135 -82 -94 0
-25 -33 66 0
-51 -98 -56 0
95 -63 -93 0
7 -13 36 0
-53 81 114 0
-98 -73 -138 0
113 -64 143 0
70 120 139 0
73 7 82 0
91 75 -70 0
108 19 -130 0
72 111 -53 0
-120 58 80 0
46 107 -139 0
35 30 40 0
-46 90 -112 0
-104 27 146 0
-127 -122 -148 0
-26 71 -100 0
-108 65 -138 0
140 -60 128 0
-78 -84 120 0
79 -19 90 0
78 -98 -147 0
80 -110 -71 0
-106 -104 -49 0
-76 -2 -147 0
-84 -140 -14 0
8 -15 -9 0
7 -26 -75 0
-112 4 60 0
-3 -31 97 0
57 -22 -23 0
-16 67 55 0
88 99 59 0
-35 40 -6 0
-103 -62 33 0
57 -40 35 0
-46 116 -62 0
-97 -113 10 0
-99 145 -116 0
44 80 66 0
69 40 28 0
-64 -142 36 0
-38 -146 -71 0
-149 59 -97 0
-85 42 -132 0
107 -112 -40 0
106 122 103 0
-135 62 24 0
-69 79 45 0
-134 -100 -44 0
-130 -73 -129 0
-44 79 -111 0
34 139 -76 0
-18 -141 -20 0
-35 -45 -23 0
127 -34 -15 0
-147 -82 73 0
-22 32 -108 0
31 145 -140 0
140 5 -111 0
-78 -108 59 0
57 91 -22 0
-85 23 36 0
34 -70 -88 0
77 -6 137 0
114 67 49 0
97 113 128 0
115 -125 49 0
-141 68 -129 0
28 32 34 0
-134 -96 -117 0
69 148 -52 0
-35 106 95 0
123 34 66 0
144 35 133 0
24 -59 -122 0
55 39 2 0
-100 9 133 0
-78 93 149 0
-123 -64 -72 0
117 -17 86 0
x -1 6 -9 -10 13 15 16 -17 -20 -21 -22 23 -26 30 31 32 35 40 42 -43 44 49 -50 -53 -55 -57 58 59 61 63 66 68 -69 71 -73 -79 81 -82 83 -84 -85 -86 88 89 90 91 92 93 94 96 98 -99 -101 -104 -105 107 -109 -110 114 -115 117 -118 -119 123 127 -130 -134 -135 -139 -142 144 145 146 148 149 -150 0
x -1 -2 3 4 -5 6 7 -8 -9 11 -12 -15 16 17 -22 -25 26 28 30 32 33 -34 38 -42 43 -44 45 46 48 -49 -52 55 -56 -60 65 67 -72 -74 76 -78 -82 -94 -96 102 -108 -111 -113 -114 115 -116 117 -118 -122 -129 130 -132 -133 134 142 144 146 0
x 1 3 4 5 6 -7 -13 14 15 16 17 19 20 -25 26 27 -28 29 30 32 33 -35 36 37 -38 40 -42 -44 -45 46 -48 -55 57 -58 62 63 -65 66 67 -68 69 71 -73 -74 75 77 78 80 -82 85 86 -89 92 93 98 100 -101 -102 103 -104 -105 -109 110 111 120 -121 124 -126 127 130 131 132 -133 134 135 -138 -140 142 -144 145 -146 0
x 6 -7 -8 9 11 -15 16 18 19 -21 22 -23 24 26 27 28 30 31 -32 -33 37 38 -40 41 -42 -43 -44 45 -47 49 52 -53 55 -57 -58 -64 66 -67 -69 -70 -72 -73 -75 -76 79 81 -82 -83 84 -86 -88 89 -94 95 -96 -97 98 -100 107 -108 -109 -111 112 117 118 -119 120 -122 124 126 -128 129 -131 -133 -134 -136 139 -142 143 146 148 -149 150 0
x -2 -6 7 -8 -9 13 -14 -16 21 -22 25 -29 30 31 34 36 -37 -40 -43 45 46 -47 -49 -53 -54 -57 59 -61 62 -63 64 -65 -66 -67 -70 71 72 -74 -76 78 -79 83 84 -85 86 -87 -91 -93 97 -98 102 103 -107 -108 112 114 116 -117 -118 119 121 122 -124 125 126 127 -128 -134 -135 -140 141 -144 145 147 -148 149 150 0
x -1 2 -4 5 -7 -12 -14 -20 22 -26 27 28 40 -42 44 -47 48 49 -52 -56 60 -63 -64 72 74 -76 79 80 81 82 -83 84 -86 88 -90 -93 -98 -102 -103 -105 106 -108 -110 -111 115 -117 119 -120 -125 -126 128 130 -132 -137 138 139 140 141 -142 -145 146 147 148 -150 0
x -1 2 3 6 8 11 -12 14 15 17 -18 19 -24 -25 -26 -34 -36 37 40 42 43 44 -46 -47 -50 -53 -54 -56 58 -61 62 -64 65 68 -69 -72 -75 -76 77 -78 -81 -84 -85 89 90 -91 93 98 99 100 101 102 103 -105 -107 -110 -113 -116 -118 119 -120 -121 -123 -124 -128 132 -135 -136 141 -146 149 0
x 1 -3 4 5 -6 -9 10 -11 -13 17 -22 -27 -29 30 36 -37 40 44 47 48 51 -52 -53 -55 57 58 -59 60 62 -63 65 -67 -68 71 -73 75 -77 79 81 -82 84 -85 86 88 -89 90 91 93 -95 97 -100 -103 -104 105 107 -109 110 111 -113 -114 115 116 117 118 120 -122 -127 -129 131 -132 133 134 -136 -138 -141 142 -143 145 -146 -149 0
x -2 -3 -4 5 -8 -9 10 -14 -18 19 22 30 31 32 -33 36 -37 -42 -43 -44 -45 49 -52 53 55 56 -57 58 59 60 61 63 -64 -66 67 -70 71 -73 74 -76 -79 80 -81 -82 -83 -88 91 -93 -95 -100 103 -104 -105 108 -112 -116 119 120 -122 124 -125 127 -129 -130 132 -133 -134 -135 137 143 147 -149 0
x -1 -3 5 8 9 -10 12 14 -17 19 -21 22 24 -25 -27 -31 35 -37 39 40 -44 -45 -46 -55 -56 -59 -62 65 66 67 69 -70 -72 -73 -74 79 -80 -81 -82 83 84 85 86 90 -91 94 95 -96 97 98 100 103 104 106 -109 110 113 -114 -117 -119 122 123 124 -125 128 -130 -131 -132 133 134 -137 142 -143 144 -145 -149 150 0
x -1 11 -12 -14 16 -17 -21 -23 -25 26 30 31 35 -37 -38 39 -40 41 -43 -44 -46 47 50 51 -52 54 56 -57 60 -61 62 63 64 65 66 68 -69 -70 -71 72 -75 -77 -79 80 -81 85 86 88 90 91 92 -98 100 104 -105 -109 -111 113 114 -116 -117 121 122 -123 -124 125 -130 -133 -134 135 -139 140 141 142 144 -146 -147 -148 149 150 0
x -3 4 9 -11 -14 -15 -18 -19 -21 22 23 24 -25 -27 -32 34 -36 41 -43 45 -46 47 48 51 -56 -57 -58 60 -62 -64 66 -68 -69 -71 -72 -73 -75 -78 79 -81 82 83 85 86 89 91 92 93 -95 -97 101 102 -103 -104 105 -106 114 117 121 122 -123 -125 -126 -127 -130 -131 133 135 136 -137 138 -143 150 0
x 1 2 5 -7 -8 -11 13 18 21 22 -25 -26 -27 -31 33 -35 -39 -40 42 43 -45 -46 48 -49 50 -51 -54 -57 -59 -61 62 63 64 65 -68 70 71 -72 -78 79 80 -82 84 85 -88 89 -90 91 -98 99 -102 103 104 106 112 -113 114 115 -116 119 -120 121 -123 -126 -127 128 129 130 131 -132 139 141 -144 147 0
x 1 -2 -4 -5 -6 -11 13 -14 18 19 20 25 30 -32 -35 -36 39 -40 -41 43 46 48 -53 -54 -57 59 -60 62 -64 -65 66 69 70 71 72 75 78 79 -80 83 86 -87 90 91 -94 -95 -99 102 -103 105 108 110 117 -119 122 123 -124 128 132 -134 137 -138 -140 143 -144 145 -150 0
x 1 6 9 -11 -14 18 20 -21 -24 -27 -29 34 -37 38 40 41 43 -44 -45 -47 48 52 -53 -56 57 61 -62 63 -67 68 -72 73 76 -77 -78 82 -83 84 85 86 88 89 90 -94 -95 96 -97 99 101 -102 103 -104 -105 -108 -112 114 -115 -116 117 118 -120 121 -123 -124 -129 -131 133 136 -142 -143 -146 -149 150 0
x -1 -2 3 -5 -6 12 -13 -15 -16 -17 -19 20 23 -25 -27 30 33 34 -35 36 -37 -39 -40 42 43 44 -45 -46 48 49 -53 -54 56 58 -59 -62 63 -65 66 -70 -71 72 -73 -76 -77 78 -79 -80 82 84 85 -87 -89 -90 -96 98 -101 102 103 106 -107 108 -110 111 112 114 116 -117 -120 121 122 124 -126 131 -132 133 -134 135 136 -138 141 149 -150 0
x 1 3 4 -5 6 8 -12 15 16 -17 -18 -19 -20 25 -28 33 38 -40 -42 -43 44 -46 55 56 60 -61 63 65 -66 67 71 -74 -75 76 -81 -83 -86 -89 91 -92 93 94 -95 97 -102 -103 104 105 -106 -110 -111 112 114 116 -119 -121 127 -129 134 -137 -139 141 -143 146 148 149 -150 0
x -3 4 10 13 -16 -17 19 -20 -21 22 23 -24 25 -27 -28 -29 -32 36 39 -40 -41 42 -43 -47 -49 -51 -52 -54 -56 59 60 61 -64 -66 69 70 73 -78 -80 -81 82 89 90 -91 93 94 -96 -97 -100 -102 -105 107 109 -112 -113 -115 118 120 122 124 129 130 -134 -135 -137 138 -139 142 -143 -146 -147 148 -149 0
x 1 -2 4 8 12 -13 14 15 -16 -22 23 -28 32 35 36 -40 42 44 45 -47 48 51 52 -53 54 55 -56 58 63 -67 68 -70 73 -76 -77 -78 -82 -83 87 88 93 -94 95 -99 -100 101 -103 -106 -108 109 -110 112 -114 -117 -119 -122 -124 -126 127 131 -133 134 -135 -136 -141 -142 145 -146 -150 0
x 1 -2 -5 7 8 11 12 13 -14 15 -16 -17 -18 22 -23 24 26 -29 31 -33 -35 -38 -39 -42 -43 -46 -47 -50 -52 53 54 -56 -57 58 -61 -62 65 -67 68 -69 73 74 75 76 78 79 80 -81 83 84 86 -90 -93 -96 -97 -98 101 103 -106 -108 -109 -110 -111 -112 -114 117 -120 121 122 124 -127 -128 -131 -132 133 -134 -142 -143 144 -147 148 150 0
x -1 -3 13 14 15 -16 -23 -25 -26 27 -29 -30 -33 34 -36 -37 -38 41 43 -45 47 -51 52 53 54 -55 56 -60 63 -64 71 -73 76 77 -79 -80 -81 83 -85 88 -89 -91 92 -93 -95 96 99 100 -102 -103 -106 -114 -116 117 -120 -122 -124 -125 126 128 -129 -130 131 134 -135 139 142 143 145 -148 149 -150 0
x 2 -4 -5 -7 -8 -9 11 15 18 23 -24 -27 -31 -32 -33 35 -36 -37 40 -42 43 44 -46 49 -51 54 58 -59 -60 -61 -62 63 64 65 -69 70 71 -73 74 76 -79 -80 -85 -86 87 91 -92 -94 96 97 101 107 -110 -111 -114 -117 118 123 124 125 -126 -130 132 137 138 139 -145 146 -147 150 0
x -5 8 -10 -11 -12 -13 -19 20 -22 -26 -28 -32 -34 35 -37 -38 -39 40 -41 -43 -44 45 52 56 57 59 60 63 64 65 67 -69 71 -72 -73 74 76 79 -82 84 -85 86 -88 91 -92 94 96 -97 -103 -107 109 111 -114 115 -117 -120 121 122 -125 126 -127 128 131 132 -134 -135 -138 140 -141 145 146 149 0
x 2 4 -5 -7 -11 -12 -18 19 21 24 -28 -31 32 -35 -38 39 40 41 43 47 48 51 52 -53 55 -56 -58 60 65 67 69 -70 -71 -72 74 77 79 -81 -83 88 -90 92 -93 98 -100 101 103 -106 108 110 -111 113 115 116 119 -120 122 123 -124 125 -126 -130 -131 135 -139 143 -144 -146 -147 148 0
x 1 3 7 -10 11 12 14 17 20 -22 23 25 -27 -28 -31 -33 -35 37 -38 -39 -40 41 43 -44 -47 -48 -50 54 56 60 61 -65 -67 68 -70 -73 -74 -75 77 -80 81 83 84 -86 -88 -89 -91 92 -96 -98 112 -114 -117 -118 121 -124 127 128 129 130 131 -132 -133 135 -138 144 145 -148 149 150 0
x 2 3 5 6 7 -9 -12 -15 -16 19 20 -25 -26 -29 -30 31 -32 -33 35 36 37 -40 42 -43 44 45 -46 48 -49 -50 51 52 -54 55 -62 -63 -64 65 -66 -68 -70 72 73 -75 -77 -78 79 -82 83 85 -87 89 -91 -92 -93 -94 95 -100 -102 103 -105 106 -110 112 113 -114 -117 119 -121 -122 124 -131 -133 -134 -136 137 138 139 -142 -143 145 148 -150 0
x 1 -2 -3 -5 9 -13 14 16 -18 19 20 22 23 -24 -25 -26 27 28 -29 31 -32 35 37 38 39 40 -41 42 44 -45 -47 49 51 52 -53 -57 58 59 60 63 64 75 76 -78 79 83 84 85 -86 87 88 -91 -93 -94 96 100 -101 -102 103 -105 107 114 116 117 -118 -119 -120 128 129 -130 131 -133 -134 135 136 137 138 141 142 143 145 146 147 149 150 0
x 1 3 8 -10 -12 -13 16 -17 -18 19 20 22 23 25 -30 -34 -39 -40 -46 48 -51 53 55 -56 57 -58 -59 60 64 -65 -68 69 71 -72 75 -76 -77 78 79 -80 82 83 84 -87 90 93 94 -99 -101 102 -104 -107 -108 112 113 114 115 -117 -118 119 -120 -121 -123 124 125 128 129 -131 -134 136 138 139 -142 144 -146 0
x -2 -7 8 9 11 -14 16 -19 -22 -24 27 -30 31 33 34 36 39 -40 -45 46 -51 53 -54 -55 -57 -63 -64 -66 69 -70 71 73 74 -75 79 -80 -81 -82 83 84 -85 -91 92 93 -96 -97 99 100 -102 105 -110 -111 -114 117 120 121 -122 128 -130 -132 138 -140 -141 142 -147 0
x -1 -2 -7 9 -10 -11 -13 14 -16 21 -22 -24 -28 30 31 34 35 -36 38 39 41 43 -47 -50 -51 -57 58 60 62 -65 -66 67 -68 69 -71 78 -81 -82 84 88 -89 -90 92 -93 95 -99 102 104 -106 -108 -109 -110 111 -112 113 -114 -118 -120 -121 122 123 -124 -125 -126 127 -128 -130 -134 -136 137 -139 141 -142 -145 -148 -150 0
x 1 4 5 -6 -7 8 11 13 -14 21 -22 -23 -24 27 28 29 -30 -32 34 35 -36 -37 39 41 45 46 -58 60 63 -65 66 67 70 -74 -75 -77 79 82 83 -86 92 -93 -97 -99 101 -102 -103 105 109 -110 113 114 115 -117 -118 -119 -121 -122 125 -128 -129 130 132 -134 135 -137 138 -142 143 -146 -148 -150 0
x 3 4 7 -8 -11 -12 -13 -14 15 -19 -20 -21 -24 25 28 -30 31 36 37 -38 42 43 44 -47 48 49 -50 -51 52 55 56 -57 -63 65 -66 -67 -68 -69 71 -72 -73 76 77 78 -84 -85 -87 88 90 91 -93 -94 97 -98 99 -100 -102 -103 -105 107 -109 -112 118 -120 121 -122 -123 -124 -127 -132 -136 137 -142 143 -144 145 146 -147 -148 0
x 1 -4 -5 -8 -9 11 12 -13 -14 -15 16 -20 -21 -22 -23 24 25 27 29 31 32 34 -36 -37 38 39 40 41 42 45 46 -47 49 51 52 -53 55 -56 -58 64 65 66 -67 -68 74 75 -78 79 82 -83 85 86 87 88 90 92 94 -99 100 103 104 106 -108 109 110 111 -112 -116 -119 122 -123 -124 -125 -127 128 129 -136 138 143 144 -145 147 149 150 0
x 1 -3 -6 9 -11 12 -15 16 -17 19 22 24 -25 26 30 32 -33 34 35 36 -37 38 40 -41 -42 -44 -45 50 52 53 -55 58 60 61 -62 63 -64 65 66 -69 -72 74 76 77 -78 79 -81 82 -83 -85 90 -92 94 -96 -99 -100 108 112 -116 117 122 -123 126 131 -132 133 -139 140 144 -145 -148 0
x 1 -2 -3 -4 7 -8 -12 14 -16 18 -19 -20 22 -30 31 32 -33 34 -35 -38 -40 41 42 -45 46 47 48 -50 -51 -54 -58 59 63 -65 67 -69 70 -71 -72 -73 -74 -75 78 80 81 -82 -83 85 -87 90 -91 -95 97 -98 99 -100 101 102 -103 105 107 109 110 -111 -116 -117 123 124 -125 126 -127 128 -129 -130 -132 -138 -139 -141 -148 -150 0
x -4 -7 8 -13 -14 -17 -19 20 -22 -23 -24 -25 -26 27 31 -35 -37 -39 -41 42 43 -47 -48 51 -55 -56 58 -59 60 -62 -68 71 -74 -78 79 -80 84 86 -89 91 -92 -94 99 101 102 105 -106 -108 110 -111 114 117 -119 -120 121 123 -124 126 128 -134 -135 137 138 140 141 -142 -143 146 -148 -150 0
x -3 -4 5 -7 -8 -9 10 -12 -13 14 -15 16 18 19 21 24 26 -27 -31 33 35 38 40 -46 47 -48 -49 -50 -52 55 -57 58 -60 -61 62 -65 66 67 69 -71 -72 74 75 -76 77 -80 -82 83 86 -87 -90 -91 -92 95 -96 97 100 102 103 105 -106 -107 108 110 -112 -114 -117 -119 -121 124 -125 -127 -130 -131 134 137 -139 -141 -145 146 147 0
x -2 -3 -4 7 -9 12 13 16 18 -19 20 21 -23 26 -27 -28 29 30 31 -32 34 -35 36 38 39 -42 45 46 50 -51 55 56 -57 59 60 62 -65 66 67 68 71 72 74 75 76 -80 -82 -83 -84 -88 -89 91 -93 94 95 -97 101 103 -104 106 107 108 -109 -111 112 -113 -115 116 117 118 -121 122 -125 126 127 130 132 135 -137 139 140 -142 144 145 -148 -149 0
x -3 5 6 10 -13 -15 -17 -18 19 20 22 23 26 -31 -32 -33 34 39 -46 47 48 -49 51 -52 -55 -56 57 -58 -60 -64 -65 73 -74 76 -77 -81 -82 88 -90 91 93 -94 96 100 -101 105 -106 -108 109 -111 112 113 -114 -116 -117 -119 121 126 128 -129 -131 132 -134 -138 140 -144 -145 147 149 0
x -3 -6 -8 10 11 13 -15 -16 -20 -21 24 -26 -29 30 34 36 -37 39 -40 43 46 48 -49 50 52 -57 58 62 -63 65 -70 72 -74 76 77 79 -81 -82 83 -86 87 -89 -93 -94 -98 99 -102 103 108 109 -111 118 121 -123 -124 125 126 127 131 132 134 139 -143 145 147 -149 0
x -2 4 -5 -6 -9 11 -12 13 -14 -15 -16 -17 20 21 24 -26 -28 29 30 31 32 -33 38 -40 41 43 44 45 -46 48 50 -51 -53 56 -59 60 -63 64 72 73 -75 78 -80 81 84 -86 87 89 -90 93 95 98 -100 -101 -103 106 108 -109 111 -112 117 118 -120 122 -129 -130 -132 -135 136 -138 -139 -142 144 147 149 0
x 2 -3 -7 -8 -10 -16 -20 22 24 -25 -27 29 30 31 32 -33 -34 35 37 38 39 -41 42 -44 48 49 50 -54 59 60 -62 63 65 -66 -68 69 72 -74 76 -81 82 84 -85 -86 -87 88 -89 -92 -94 -96 -99 101 104 -106 108 109 110 -112 -114 -116 119 120 -124 125 126 -128 130 -133 -135 138 140 -141 -143 145 -146 150 0
x 1 2 -3 5 -6 8 -11 12 -18 -19 -20 -24 -26 30 -31 32 -34 -35 -36 37 -38 39 40 41 42 43 45 46 48 49 -51 54 -55 60 -61 62 -66 -67 -70 -72 -74 -77 -78 -79 80 83 84 89 91 -92 97 -100 -101 -102 104 -107 108 109 111 112 -113 -114 115 -116 -117 -121 127 -128 -131 -134 -135 -138 139 144 -147 148 -149 0
x -4 -6 -10 -12 16 -19 20 22 -25 -26 28 -29 34 38 -40 -41 -42 44 49 53 -54 59 62 64 -65 -66 -69 -73 -74 -75 -76 78 -81 82 83 -85 -88 -89 -91 92 -95 -96 97 99 100 103 105 -108 -109 111 -113 -115 -120 121 123 126 128 -130 -132 -133 134 135 -138 140 -142 -143 -144 145 -147 148 149 0
x -4 -5 -8 -12 -13 -14 17 18 19 22 23 -24 -27 28 29 -30 34 -36 -37 -38 -40 -42 -43 45 47 -49 -50 52 -54 -57 59 61 65 67 -69 70 -73 -75 76 81 -83 -86 87 89 90 -96 97 98 -102 105 -110 -111 112 113 114 115 117 119 120 -121 122 -123 -125 -126 -130 131 133 136 137 -139 -141 144 -145 -146 148 -150 0
x -1 -4 -6 -8 -9 -10 15 -17 -19 -20 -21 23 25 -26 27 -28 29 -30 -34 -36 -37 -38 -40 -44 -46 -48 -50 -54 -55 56 -59 -60 63 64 65 66 -67 68 -70 72 74 -78 -79 80 81 82 -83 86 87 89 -93 95 -96 -97 -99 -100 101 -105 106 -108 -109 -111 -112 -115 116 -118 -120 -121 122 125 126 -129 130 -134 136 137 138 -139 -140 -141 142 0
x -1 2 -6 -7 -11 13 18 -19 23 -24 28 -32 36 37 -38 39 -40 43 45 -47 48 -49 52 55 56 59 -61 62 65 -67 -70 -72 -73 75 77 85 86 87 -90 91 -92 93 94 -98 -100 -103 -105 -107 109 -114 115 -119 -120 121 -123 -124 -125 -126 -127 129 131 -132 -133 137 139 -140 -141 -142 144 146 -147 -149 -150 0
x 2 3 4 5 6 7 -11 -13 16 -20 21 -22 24 -27 -28 -34 -35 -36 37 38 -39 -41 -42 43 -44 45 46 -47 51 -52 -53 58 -61 -65 -66 67 68 69 -71 -73 74 75 77 78 79 -80 -81 82 -83 -84 -87 -89 -92 95 -96 98 -99 102 103 -104 105 106 107 109 110 -112 -114 -116 -117 -120 122 124 134 135 -136 -137 -138 -142 143 144 145 0
x 1 4 -5 9 13 -14 -15 -21 -22 -23 -24 26 -27 -34 -36 37 38 39 -48 49 -52 -53 55 -56 57 59 -63 64 65 -70 -73 -74 75 76 77 -78 -79 -81 -82 83 84 85 86 -87 -90 -91 -92 -94 -97 99 104 -108 -110 114 -116 -117 120 -121 123 -124 -126 128 -129 133 134 136 -137 -139 140 -142 -144 145 148 150 0
x -3 4 -6 8 -9 -10 -12 -18 19 20 -21 22 -23 -27 -29 32 -33 35 -36 -40 41 44 46 -48 -49 50 -52 -54 -57 58 59 -60 -63 64 -65 66 -69 70 -71 76 80 82 83 84 85 -88 -89 -93 94 95 -96 -97 -98 -99 100 102 103 -108 -109 110 112 114 115 116 117 -118 120 -122 123 126 -128 -129 133 135 137 -139 142 147 -150 0
x 2 3 -5 -8 9 10 11 -12 -13 14 -15 16 19 -20 23 29 -31 34 -35 -36 -38 -41 -43 -44 -45 46 -47 -48 -49 52 -55 -56 -64 -66 -68 -71 -72 -73 -74 -75 -76 81 -82 -85 87 94 98 99 -101 102 104 -105 -106 -108 -110 -112 113 -119 -120 -122 -125 -127 -130 131 -133 141 143 145 0
x 1 2 6 -7 11 -14 18 -21 24 25 26 29 -32 -34 -37 38 -42 44 -45 -47 -48 52 56 57 59 60 -61 62 63 -64 69 -72 -73 -76 78 -79 -80 -84 -85 -88 89 91 -100 -103 109 -110 114 117 118 120 121 122 -123 125 126 -130 133 -137 143 -144 -145 146 -149 0
x 1 -2 3 4 -6 -8 9 -12 15 16 17 25 28 -29 -33 35 36 37 -44 45 47 -49 50 52 53 -57 58 61 62 63 -64 -66 67 -69 -70 -71 -72 73 74 -75 -77 -79 -81 -82 83 -84 -86 -87 89 -91 93 94 95 -97 101 -102 -103 -104 107 -108 -110 111 -114 115 120 -123 124 -125 127 134 136 -140 -141 -142 -143 -144 -145 -146 -148 149 0
x 1 3 -4 6 -7 9 -11 13 -14 -16 -20 -21 26 28 -31 -34 41 -42 43 -46 49 -53 54 -55 57 58 -61 62 -63 -64 65 66 67 69 71 -72 -74 -75 -77 -78 82 84 85 -86 -87 88 -91 -93 94 -95 -102 104 105 -106 107 -108 111 -112 115 117 -118 -120 -121 122 124 127 129 130 133 136 -140 -143 -144 147 148 0
x 4 -5 -6 7 9 -10 11 12 -14 -15 18 -19 -20 -21 22 25 -26 27 -29 31 -33 35 -39 41 43 44 -45 -46 50 55 58 59 -60 -65 -66 -67 70 -72 75 78 -79 80 81 -82 -83 84 86 -87 -88 90 95 97 101 -102 105 -108 113 114 -118 -119 120 -122 -124 -125 127 129 -131 136 137 -138 140 -141 -142 144 -146 147 -150 0
x -1 -3 4 -5 -6 -8 -9 12 18 19 20 -21 22 -24 26 29 32 36 37 -38 -39 -41 42 -45 -46 -47 48 49 50 -53 -54 55 56 62 63 -65 -69 -71 72 -75 -76 -77 -78 -80 -83 86 -88 89 -91 94 -95 98 102 -103 -104 105 107 108 -110 -115 118 -119 -121 124 125 129 131 -134 135 136 -138 -141 143 -144 -145 -147 148 150 0
x 3 -6 -7 -9 11 17 -18 19 -20 21 23 -25 32 33 38 40 42 -43 48 49 -50 53 54 -55 57 58 60 -61 -62 -63 64 -68 73 -75 76 -78 -79 80 81 83 -84 -85 87 89 92 93 94 -98 99 100 101 -108 -110 111 115 120 -123 -124 -126 -127 129 -130 132 133 -137 140 -141 -142 144 145 -146 -148 -150 0
x 1 -3 5 -6 -8 -10 -11 12 -13 14 -15 16 -18 22 25 -26 28 29 -31 -32 33 -34 -35 -36 37 -41 -47 -48 -49 50 52 -54 -56 -57 59 61 63 65 67 -68 -71 73 79 81 -82 83 88 -89 -92 95 96 97 -99 -100 -101 -102 104 -106 107 108 109 -112 114 118 119 121 127 128 129 -130 131 133 135 138 -140 -141 -145 -147 -148 -150 0
x -3 -4 -5 7 9 -11 -12 -16 19 -21 22 24 -25 26 -29 33 -34 36 -38 -39 -41 42 43 -44 -46 47 49 -50 -53 54 -55 57 -58 -60 61 66 -69 -70 -71 -72 -73 76 77 83 -85 88 89 -90 94 -95 -97 99 100 101 102 103 104 105 106 -107 113 114 -115 -120 -124 -125 -126 -129 -130 -134 -135 137 -139 149 -150 0
x 4 5 7 -8 -10 14 15 -17 -18 20 -23 -26 -27 32 -33 -34 -35 -37 -39 -40 41 -43 -45 46 -51 -53 -56 57 -58 61 62 66 67 -68 -74 -75 76 77 80 -83 86 88 93 94 -95 98 -101 104 107 108 -110 113 117 118 119 120 123 124 -125 127 -131 -132 -135 136 -138 -139 140 142 144 -149 0
